set Stages := FirstStage SecondStage ;

set Nodes := RootNode 
Node1
Node2
Node3
Node4
Node5
Node6
Node7
Node8
Node9
Node10
Node11
Node12
Node13
Node14
Node15
Node16
Node17
Node18
Node19
Node20
Node21
Node22
Node23
Node24
Node25
Node26
Node27
Node28
Node29
Node30
Node31
Node32
Node33
Node34
Node35
Node36
Node37
Node38
Node39
Node40
Node41
Node42
Node43
Node44
Node45
Node46
Node47
Node48
Node49
Node50
Node51
Node52
Node53
Node54
Node55
Node56
Node57
Node58
Node59
Node60
Node61
Node62
Node63
Node64
Node65
Node66
Node67
Node68
Node69
Node70
Node71
Node72
Node73
Node74
Node75
Node76
Node77
Node78
Node79
Node80
Node81
Node82
Node83
Node84
Node85
Node86
Node87
Node88
Node89
Node90
Node91
Node92
Node93
Node94
Node95
Node96
Node97
Node98
Node99
Node100
Node101
Node102
Node103
Node104
Node105
Node106
Node107
Node108
Node109
Node110
Node111
Node112
Node113
Node114
Node115
Node116
Node117
Node118
Node119
Node120
Node121
Node122
Node123
Node124
Node125
Node126
Node127
Node128
Node129
Node130
Node131
Node132
Node133
Node134
Node135
Node136
Node137
Node138
Node139
Node140
Node141
Node142
Node143
Node144
Node145
Node146
Node147
Node148
Node149
Node150
Node151
Node152
Node153
Node154
Node155
Node156
Node157
Node158
Node159
Node160
Node161
Node162
Node163
Node164
Node165
Node166
Node167
Node168
Node169
Node170
Node171
Node172
Node173
Node174
Node175
Node176
Node177
Node178
Node179
Node180
Node181
Node182
Node183
Node184
Node185
Node186
Node187
Node188
Node189
Node190
Node191
Node192
Node193
Node194
Node195
Node196
Node197
Node198
Node199
Node200
Node201
Node202
Node203
Node204
Node205
Node206
Node207
Node208
Node209
Node210
Node211
Node212
Node213
Node214
Node215
Node216
Node217
Node218
Node219
Node220
Node221
Node222
Node223
Node224
Node225
Node226
Node227
Node228
Node229
Node230
Node231
Node232
Node233
Node234
Node235
Node236
Node237
Node238
Node239
Node240
Node241
Node242
Node243
Node244
Node245
Node246
Node247
Node248
Node249
Node250
Node251
Node252
Node253
Node254
Node255
Node256
;
param NodeStage := RootNode         FirstStage
Node1 SecondStage
Node2 SecondStage
Node3 SecondStage
Node4 SecondStage
Node5 SecondStage
Node6 SecondStage
Node7 SecondStage
Node8 SecondStage
Node9 SecondStage
Node10 SecondStage
Node11 SecondStage
Node12 SecondStage
Node13 SecondStage
Node14 SecondStage
Node15 SecondStage
Node16 SecondStage
Node17 SecondStage
Node18 SecondStage
Node19 SecondStage
Node20 SecondStage
Node21 SecondStage
Node22 SecondStage
Node23 SecondStage
Node24 SecondStage
Node25 SecondStage
Node26 SecondStage
Node27 SecondStage
Node28 SecondStage
Node29 SecondStage
Node30 SecondStage
Node31 SecondStage
Node32 SecondStage
Node33 SecondStage
Node34 SecondStage
Node35 SecondStage
Node36 SecondStage
Node37 SecondStage
Node38 SecondStage
Node39 SecondStage
Node40 SecondStage
Node41 SecondStage
Node42 SecondStage
Node43 SecondStage
Node44 SecondStage
Node45 SecondStage
Node46 SecondStage
Node47 SecondStage
Node48 SecondStage
Node49 SecondStage
Node50 SecondStage
Node51 SecondStage
Node52 SecondStage
Node53 SecondStage
Node54 SecondStage
Node55 SecondStage
Node56 SecondStage
Node57 SecondStage
Node58 SecondStage
Node59 SecondStage
Node60 SecondStage
Node61 SecondStage
Node62 SecondStage
Node63 SecondStage
Node64 SecondStage
Node65 SecondStage
Node66 SecondStage
Node67 SecondStage
Node68 SecondStage
Node69 SecondStage
Node70 SecondStage
Node71 SecondStage
Node72 SecondStage
Node73 SecondStage
Node74 SecondStage
Node75 SecondStage
Node76 SecondStage
Node77 SecondStage
Node78 SecondStage
Node79 SecondStage
Node80 SecondStage
Node81 SecondStage
Node82 SecondStage
Node83 SecondStage
Node84 SecondStage
Node85 SecondStage
Node86 SecondStage
Node87 SecondStage
Node88 SecondStage
Node89 SecondStage
Node90 SecondStage
Node91 SecondStage
Node92 SecondStage
Node93 SecondStage
Node94 SecondStage
Node95 SecondStage
Node96 SecondStage
Node97 SecondStage
Node98 SecondStage
Node99 SecondStage
Node100 SecondStage
Node101 SecondStage
Node102 SecondStage
Node103 SecondStage
Node104 SecondStage
Node105 SecondStage
Node106 SecondStage
Node107 SecondStage
Node108 SecondStage
Node109 SecondStage
Node110 SecondStage
Node111 SecondStage
Node112 SecondStage
Node113 SecondStage
Node114 SecondStage
Node115 SecondStage
Node116 SecondStage
Node117 SecondStage
Node118 SecondStage
Node119 SecondStage
Node120 SecondStage
Node121 SecondStage
Node122 SecondStage
Node123 SecondStage
Node124 SecondStage
Node125 SecondStage
Node126 SecondStage
Node127 SecondStage
Node128 SecondStage
Node129 SecondStage
Node130 SecondStage
Node131 SecondStage
Node132 SecondStage
Node133 SecondStage
Node134 SecondStage
Node135 SecondStage
Node136 SecondStage
Node137 SecondStage
Node138 SecondStage
Node139 SecondStage
Node140 SecondStage
Node141 SecondStage
Node142 SecondStage
Node143 SecondStage
Node144 SecondStage
Node145 SecondStage
Node146 SecondStage
Node147 SecondStage
Node148 SecondStage
Node149 SecondStage
Node150 SecondStage
Node151 SecondStage
Node152 SecondStage
Node153 SecondStage
Node154 SecondStage
Node155 SecondStage
Node156 SecondStage
Node157 SecondStage
Node158 SecondStage
Node159 SecondStage
Node160 SecondStage
Node161 SecondStage
Node162 SecondStage
Node163 SecondStage
Node164 SecondStage
Node165 SecondStage
Node166 SecondStage
Node167 SecondStage
Node168 SecondStage
Node169 SecondStage
Node170 SecondStage
Node171 SecondStage
Node172 SecondStage
Node173 SecondStage
Node174 SecondStage
Node175 SecondStage
Node176 SecondStage
Node177 SecondStage
Node178 SecondStage
Node179 SecondStage
Node180 SecondStage
Node181 SecondStage
Node182 SecondStage
Node183 SecondStage
Node184 SecondStage
Node185 SecondStage
Node186 SecondStage
Node187 SecondStage
Node188 SecondStage
Node189 SecondStage
Node190 SecondStage
Node191 SecondStage
Node192 SecondStage
Node193 SecondStage
Node194 SecondStage
Node195 SecondStage
Node196 SecondStage
Node197 SecondStage
Node198 SecondStage
Node199 SecondStage
Node200 SecondStage
Node201 SecondStage
Node202 SecondStage
Node203 SecondStage
Node204 SecondStage
Node205 SecondStage
Node206 SecondStage
Node207 SecondStage
Node208 SecondStage
Node209 SecondStage
Node210 SecondStage
Node211 SecondStage
Node212 SecondStage
Node213 SecondStage
Node214 SecondStage
Node215 SecondStage
Node216 SecondStage
Node217 SecondStage
Node218 SecondStage
Node219 SecondStage
Node220 SecondStage
Node221 SecondStage
Node222 SecondStage
Node223 SecondStage
Node224 SecondStage
Node225 SecondStage
Node226 SecondStage
Node227 SecondStage
Node228 SecondStage
Node229 SecondStage
Node230 SecondStage
Node231 SecondStage
Node232 SecondStage
Node233 SecondStage
Node234 SecondStage
Node235 SecondStage
Node236 SecondStage
Node237 SecondStage
Node238 SecondStage
Node239 SecondStage
Node240 SecondStage
Node241 SecondStage
Node242 SecondStage
Node243 SecondStage
Node244 SecondStage
Node245 SecondStage
Node246 SecondStage
Node247 SecondStage
Node248 SecondStage
Node249 SecondStage
Node250 SecondStage
Node251 SecondStage
Node252 SecondStage
Node253 SecondStage
Node254 SecondStage
Node255 SecondStage
Node256 SecondStage
;

set Children[RootNode] := Node1
Node2
Node3
Node4
Node5
Node6
Node7
Node8
Node9
Node10
Node11
Node12
Node13
Node14
Node15
Node16
Node17
Node18
Node19
Node20
Node21
Node22
Node23
Node24
Node25
Node26
Node27
Node28
Node29
Node30
Node31
Node32
Node33
Node34
Node35
Node36
Node37
Node38
Node39
Node40
Node41
Node42
Node43
Node44
Node45
Node46
Node47
Node48
Node49
Node50
Node51
Node52
Node53
Node54
Node55
Node56
Node57
Node58
Node59
Node60
Node61
Node62
Node63
Node64
Node65
Node66
Node67
Node68
Node69
Node70
Node71
Node72
Node73
Node74
Node75
Node76
Node77
Node78
Node79
Node80
Node81
Node82
Node83
Node84
Node85
Node86
Node87
Node88
Node89
Node90
Node91
Node92
Node93
Node94
Node95
Node96
Node97
Node98
Node99
Node100
Node101
Node102
Node103
Node104
Node105
Node106
Node107
Node108
Node109
Node110
Node111
Node112
Node113
Node114
Node115
Node116
Node117
Node118
Node119
Node120
Node121
Node122
Node123
Node124
Node125
Node126
Node127
Node128
Node129
Node130
Node131
Node132
Node133
Node134
Node135
Node136
Node137
Node138
Node139
Node140
Node141
Node142
Node143
Node144
Node145
Node146
Node147
Node148
Node149
Node150
Node151
Node152
Node153
Node154
Node155
Node156
Node157
Node158
Node159
Node160
Node161
Node162
Node163
Node164
Node165
Node166
Node167
Node168
Node169
Node170
Node171
Node172
Node173
Node174
Node175
Node176
Node177
Node178
Node179
Node180
Node181
Node182
Node183
Node184
Node185
Node186
Node187
Node188
Node189
Node190
Node191
Node192
Node193
Node194
Node195
Node196
Node197
Node198
Node199
Node200
Node201
Node202
Node203
Node204
Node205
Node206
Node207
Node208
Node209
Node210
Node211
Node212
Node213
Node214
Node215
Node216
Node217
Node218
Node219
Node220
Node221
Node222
Node223
Node224
Node225
Node226
Node227
Node228
Node229
Node230
Node231
Node232
Node233
Node234
Node235
Node236
Node237
Node238
Node239
Node240
Node241
Node242
Node243
Node244
Node245
Node246
Node247
Node248
Node249
Node250
Node251
Node252
Node253
Node254
Node255
Node256
;

param ConditionalProbability := RootNode          1.0
Node1 0.00390625
Node2 0.00390625
Node3 0.00390625
Node4 0.00390625
Node5 0.00390625
Node6 0.00390625
Node7 0.00390625
Node8 0.00390625
Node9 0.00390625
Node10 0.00390625
Node11 0.00390625
Node12 0.00390625
Node13 0.00390625
Node14 0.00390625
Node15 0.00390625
Node16 0.00390625
Node17 0.00390625
Node18 0.00390625
Node19 0.00390625
Node20 0.00390625
Node21 0.00390625
Node22 0.00390625
Node23 0.00390625
Node24 0.00390625
Node25 0.00390625
Node26 0.00390625
Node27 0.00390625
Node28 0.00390625
Node29 0.00390625
Node30 0.00390625
Node31 0.00390625
Node32 0.00390625
Node33 0.00390625
Node34 0.00390625
Node35 0.00390625
Node36 0.00390625
Node37 0.00390625
Node38 0.00390625
Node39 0.00390625
Node40 0.00390625
Node41 0.00390625
Node42 0.00390625
Node43 0.00390625
Node44 0.00390625
Node45 0.00390625
Node46 0.00390625
Node47 0.00390625
Node48 0.00390625
Node49 0.00390625
Node50 0.00390625
Node51 0.00390625
Node52 0.00390625
Node53 0.00390625
Node54 0.00390625
Node55 0.00390625
Node56 0.00390625
Node57 0.00390625
Node58 0.00390625
Node59 0.00390625
Node60 0.00390625
Node61 0.00390625
Node62 0.00390625
Node63 0.00390625
Node64 0.00390625
Node65 0.00390625
Node66 0.00390625
Node67 0.00390625
Node68 0.00390625
Node69 0.00390625
Node70 0.00390625
Node71 0.00390625
Node72 0.00390625
Node73 0.00390625
Node74 0.00390625
Node75 0.00390625
Node76 0.00390625
Node77 0.00390625
Node78 0.00390625
Node79 0.00390625
Node80 0.00390625
Node81 0.00390625
Node82 0.00390625
Node83 0.00390625
Node84 0.00390625
Node85 0.00390625
Node86 0.00390625
Node87 0.00390625
Node88 0.00390625
Node89 0.00390625
Node90 0.00390625
Node91 0.00390625
Node92 0.00390625
Node93 0.00390625
Node94 0.00390625
Node95 0.00390625
Node96 0.00390625
Node97 0.00390625
Node98 0.00390625
Node99 0.00390625
Node100 0.00390625
Node101 0.00390625
Node102 0.00390625
Node103 0.00390625
Node104 0.00390625
Node105 0.00390625
Node106 0.00390625
Node107 0.00390625
Node108 0.00390625
Node109 0.00390625
Node110 0.00390625
Node111 0.00390625
Node112 0.00390625
Node113 0.00390625
Node114 0.00390625
Node115 0.00390625
Node116 0.00390625
Node117 0.00390625
Node118 0.00390625
Node119 0.00390625
Node120 0.00390625
Node121 0.00390625
Node122 0.00390625
Node123 0.00390625
Node124 0.00390625
Node125 0.00390625
Node126 0.00390625
Node127 0.00390625
Node128 0.00390625
Node129 0.00390625
Node130 0.00390625
Node131 0.00390625
Node132 0.00390625
Node133 0.00390625
Node134 0.00390625
Node135 0.00390625
Node136 0.00390625
Node137 0.00390625
Node138 0.00390625
Node139 0.00390625
Node140 0.00390625
Node141 0.00390625
Node142 0.00390625
Node143 0.00390625
Node144 0.00390625
Node145 0.00390625
Node146 0.00390625
Node147 0.00390625
Node148 0.00390625
Node149 0.00390625
Node150 0.00390625
Node151 0.00390625
Node152 0.00390625
Node153 0.00390625
Node154 0.00390625
Node155 0.00390625
Node156 0.00390625
Node157 0.00390625
Node158 0.00390625
Node159 0.00390625
Node160 0.00390625
Node161 0.00390625
Node162 0.00390625
Node163 0.00390625
Node164 0.00390625
Node165 0.00390625
Node166 0.00390625
Node167 0.00390625
Node168 0.00390625
Node169 0.00390625
Node170 0.00390625
Node171 0.00390625
Node172 0.00390625
Node173 0.00390625
Node174 0.00390625
Node175 0.00390625
Node176 0.00390625
Node177 0.00390625
Node178 0.00390625
Node179 0.00390625
Node180 0.00390625
Node181 0.00390625
Node182 0.00390625
Node183 0.00390625
Node184 0.00390625
Node185 0.00390625
Node186 0.00390625
Node187 0.00390625
Node188 0.00390625
Node189 0.00390625
Node190 0.00390625
Node191 0.00390625
Node192 0.00390625
Node193 0.00390625
Node194 0.00390625
Node195 0.00390625
Node196 0.00390625
Node197 0.00390625
Node198 0.00390625
Node199 0.00390625
Node200 0.00390625
Node201 0.00390625
Node202 0.00390625
Node203 0.00390625
Node204 0.00390625
Node205 0.00390625
Node206 0.00390625
Node207 0.00390625
Node208 0.00390625
Node209 0.00390625
Node210 0.00390625
Node211 0.00390625
Node212 0.00390625
Node213 0.00390625
Node214 0.00390625
Node215 0.00390625
Node216 0.00390625
Node217 0.00390625
Node218 0.00390625
Node219 0.00390625
Node220 0.00390625
Node221 0.00390625
Node222 0.00390625
Node223 0.00390625
Node224 0.00390625
Node225 0.00390625
Node226 0.00390625
Node227 0.00390625
Node228 0.00390625
Node229 0.00390625
Node230 0.00390625
Node231 0.00390625
Node232 0.00390625
Node233 0.00390625
Node234 0.00390625
Node235 0.00390625
Node236 0.00390625
Node237 0.00390625
Node238 0.00390625
Node239 0.00390625
Node240 0.00390625
Node241 0.00390625
Node242 0.00390625
Node243 0.00390625
Node244 0.00390625
Node245 0.00390625
Node246 0.00390625
Node247 0.00390625
Node248 0.00390625
Node249 0.00390625
Node250 0.00390625
Node251 0.00390625
Node252 0.00390625
Node253 0.00390625
Node254 0.00390625
Node255 0.00390625
Node256 0.00390625
;

set Scenarios :=Scenario1
Scenario2
Scenario3
Scenario4
Scenario5
Scenario6
Scenario7
Scenario8
Scenario9
Scenario10
Scenario11
Scenario12
Scenario13
Scenario14
Scenario15
Scenario16
Scenario17
Scenario18
Scenario19
Scenario20
Scenario21
Scenario22
Scenario23
Scenario24
Scenario25
Scenario26
Scenario27
Scenario28
Scenario29
Scenario30
Scenario31
Scenario32
Scenario33
Scenario34
Scenario35
Scenario36
Scenario37
Scenario38
Scenario39
Scenario40
Scenario41
Scenario42
Scenario43
Scenario44
Scenario45
Scenario46
Scenario47
Scenario48
Scenario49
Scenario50
Scenario51
Scenario52
Scenario53
Scenario54
Scenario55
Scenario56
Scenario57
Scenario58
Scenario59
Scenario60
Scenario61
Scenario62
Scenario63
Scenario64
Scenario65
Scenario66
Scenario67
Scenario68
Scenario69
Scenario70
Scenario71
Scenario72
Scenario73
Scenario74
Scenario75
Scenario76
Scenario77
Scenario78
Scenario79
Scenario80
Scenario81
Scenario82
Scenario83
Scenario84
Scenario85
Scenario86
Scenario87
Scenario88
Scenario89
Scenario90
Scenario91
Scenario92
Scenario93
Scenario94
Scenario95
Scenario96
Scenario97
Scenario98
Scenario99
Scenario100
Scenario101
Scenario102
Scenario103
Scenario104
Scenario105
Scenario106
Scenario107
Scenario108
Scenario109
Scenario110
Scenario111
Scenario112
Scenario113
Scenario114
Scenario115
Scenario116
Scenario117
Scenario118
Scenario119
Scenario120
Scenario121
Scenario122
Scenario123
Scenario124
Scenario125
Scenario126
Scenario127
Scenario128
Scenario129
Scenario130
Scenario131
Scenario132
Scenario133
Scenario134
Scenario135
Scenario136
Scenario137
Scenario138
Scenario139
Scenario140
Scenario141
Scenario142
Scenario143
Scenario144
Scenario145
Scenario146
Scenario147
Scenario148
Scenario149
Scenario150
Scenario151
Scenario152
Scenario153
Scenario154
Scenario155
Scenario156
Scenario157
Scenario158
Scenario159
Scenario160
Scenario161
Scenario162
Scenario163
Scenario164
Scenario165
Scenario166
Scenario167
Scenario168
Scenario169
Scenario170
Scenario171
Scenario172
Scenario173
Scenario174
Scenario175
Scenario176
Scenario177
Scenario178
Scenario179
Scenario180
Scenario181
Scenario182
Scenario183
Scenario184
Scenario185
Scenario186
Scenario187
Scenario188
Scenario189
Scenario190
Scenario191
Scenario192
Scenario193
Scenario194
Scenario195
Scenario196
Scenario197
Scenario198
Scenario199
Scenario200
Scenario201
Scenario202
Scenario203
Scenario204
Scenario205
Scenario206
Scenario207
Scenario208
Scenario209
Scenario210
Scenario211
Scenario212
Scenario213
Scenario214
Scenario215
Scenario216
Scenario217
Scenario218
Scenario219
Scenario220
Scenario221
Scenario222
Scenario223
Scenario224
Scenario225
Scenario226
Scenario227
Scenario228
Scenario229
Scenario230
Scenario231
Scenario232
Scenario233
Scenario234
Scenario235
Scenario236
Scenario237
Scenario238
Scenario239
Scenario240
Scenario241
Scenario242
Scenario243
Scenario244
Scenario245
Scenario246
Scenario247
Scenario248
Scenario249
Scenario250
Scenario251
Scenario252
Scenario253
Scenario254
Scenario255
Scenario256
;

param ScenarioLeafNode :=Scenario1 Node1
Scenario2 Node2
Scenario3 Node3
Scenario4 Node4
Scenario5 Node5
Scenario6 Node6
Scenario7 Node7
Scenario8 Node8
Scenario9 Node9
Scenario10 Node10
Scenario11 Node11
Scenario12 Node12
Scenario13 Node13
Scenario14 Node14
Scenario15 Node15
Scenario16 Node16
Scenario17 Node17
Scenario18 Node18
Scenario19 Node19
Scenario20 Node20
Scenario21 Node21
Scenario22 Node22
Scenario23 Node23
Scenario24 Node24
Scenario25 Node25
Scenario26 Node26
Scenario27 Node27
Scenario28 Node28
Scenario29 Node29
Scenario30 Node30
Scenario31 Node31
Scenario32 Node32
Scenario33 Node33
Scenario34 Node34
Scenario35 Node35
Scenario36 Node36
Scenario37 Node37
Scenario38 Node38
Scenario39 Node39
Scenario40 Node40
Scenario41 Node41
Scenario42 Node42
Scenario43 Node43
Scenario44 Node44
Scenario45 Node45
Scenario46 Node46
Scenario47 Node47
Scenario48 Node48
Scenario49 Node49
Scenario50 Node50
Scenario51 Node51
Scenario52 Node52
Scenario53 Node53
Scenario54 Node54
Scenario55 Node55
Scenario56 Node56
Scenario57 Node57
Scenario58 Node58
Scenario59 Node59
Scenario60 Node60
Scenario61 Node61
Scenario62 Node62
Scenario63 Node63
Scenario64 Node64
Scenario65 Node65
Scenario66 Node66
Scenario67 Node67
Scenario68 Node68
Scenario69 Node69
Scenario70 Node70
Scenario71 Node71
Scenario72 Node72
Scenario73 Node73
Scenario74 Node74
Scenario75 Node75
Scenario76 Node76
Scenario77 Node77
Scenario78 Node78
Scenario79 Node79
Scenario80 Node80
Scenario81 Node81
Scenario82 Node82
Scenario83 Node83
Scenario84 Node84
Scenario85 Node85
Scenario86 Node86
Scenario87 Node87
Scenario88 Node88
Scenario89 Node89
Scenario90 Node90
Scenario91 Node91
Scenario92 Node92
Scenario93 Node93
Scenario94 Node94
Scenario95 Node95
Scenario96 Node96
Scenario97 Node97
Scenario98 Node98
Scenario99 Node99
Scenario100 Node100
Scenario101 Node101
Scenario102 Node102
Scenario103 Node103
Scenario104 Node104
Scenario105 Node105
Scenario106 Node106
Scenario107 Node107
Scenario108 Node108
Scenario109 Node109
Scenario110 Node110
Scenario111 Node111
Scenario112 Node112
Scenario113 Node113
Scenario114 Node114
Scenario115 Node115
Scenario116 Node116
Scenario117 Node117
Scenario118 Node118
Scenario119 Node119
Scenario120 Node120
Scenario121 Node121
Scenario122 Node122
Scenario123 Node123
Scenario124 Node124
Scenario125 Node125
Scenario126 Node126
Scenario127 Node127
Scenario128 Node128
Scenario129 Node129
Scenario130 Node130
Scenario131 Node131
Scenario132 Node132
Scenario133 Node133
Scenario134 Node134
Scenario135 Node135
Scenario136 Node136
Scenario137 Node137
Scenario138 Node138
Scenario139 Node139
Scenario140 Node140
Scenario141 Node141
Scenario142 Node142
Scenario143 Node143
Scenario144 Node144
Scenario145 Node145
Scenario146 Node146
Scenario147 Node147
Scenario148 Node148
Scenario149 Node149
Scenario150 Node150
Scenario151 Node151
Scenario152 Node152
Scenario153 Node153
Scenario154 Node154
Scenario155 Node155
Scenario156 Node156
Scenario157 Node157
Scenario158 Node158
Scenario159 Node159
Scenario160 Node160
Scenario161 Node161
Scenario162 Node162
Scenario163 Node163
Scenario164 Node164
Scenario165 Node165
Scenario166 Node166
Scenario167 Node167
Scenario168 Node168
Scenario169 Node169
Scenario170 Node170
Scenario171 Node171
Scenario172 Node172
Scenario173 Node173
Scenario174 Node174
Scenario175 Node175
Scenario176 Node176
Scenario177 Node177
Scenario178 Node178
Scenario179 Node179
Scenario180 Node180
Scenario181 Node181
Scenario182 Node182
Scenario183 Node183
Scenario184 Node184
Scenario185 Node185
Scenario186 Node186
Scenario187 Node187
Scenario188 Node188
Scenario189 Node189
Scenario190 Node190
Scenario191 Node191
Scenario192 Node192
Scenario193 Node193
Scenario194 Node194
Scenario195 Node195
Scenario196 Node196
Scenario197 Node197
Scenario198 Node198
Scenario199 Node199
Scenario200 Node200
Scenario201 Node201
Scenario202 Node202
Scenario203 Node203
Scenario204 Node204
Scenario205 Node205
Scenario206 Node206
Scenario207 Node207
Scenario208 Node208
Scenario209 Node209
Scenario210 Node210
Scenario211 Node211
Scenario212 Node212
Scenario213 Node213
Scenario214 Node214
Scenario215 Node215
Scenario216 Node216
Scenario217 Node217
Scenario218 Node218
Scenario219 Node219
Scenario220 Node220
Scenario221 Node221
Scenario222 Node222
Scenario223 Node223
Scenario224 Node224
Scenario225 Node225
Scenario226 Node226
Scenario227 Node227
Scenario228 Node228
Scenario229 Node229
Scenario230 Node230
Scenario231 Node231
Scenario232 Node232
Scenario233 Node233
Scenario234 Node234
Scenario235 Node235
Scenario236 Node236
Scenario237 Node237
Scenario238 Node238
Scenario239 Node239
Scenario240 Node240
Scenario241 Node241
Scenario242 Node242
Scenario243 Node243
Scenario244 Node244
Scenario245 Node245
Scenario246 Node246
Scenario247 Node247
Scenario248 Node248
Scenario249 Node249
Scenario250 Node250
Scenario251 Node251
Scenario252 Node252
Scenario253 Node253
Scenario254 Node254
Scenario255 Node255
Scenario256 Node256
;

set StageVariables[FirstStage] :=  x[*,*]
                                   Q[*,*]
                                   QE[*,*] ;
set StageVariables[SecondStage] := PU[*,*,*]
                                   F[*,*,*]
                                   theta[*,*,*,*]
                                   WW[*,*,*,*]
                                   Slack[*,*]
                                   y[*,*]
                                   z[*,*];

param StageCost := FirstStage  FirstStageCost
                   SecondStage SecondStageCost ;

param ScenarioBasedData := False ;